1221440
49,17,6,87,64,59,105,32,77,107,41,92,104,70,46,11,35,27,7,39,67,54,12,20,47,79,16,52,99,101,53,57,103,21,63,22,14,73,66,3,78,91,55,102,29,5,60,84,42,94,31,43,19,62,2,82,24,15,106,93,45,80,1,50,83,58,28,51,33,44,81,0,34,100,97,4,89,23,108,9,65,76,8,36,25,40,37,71,56,74,85,26,68,69,13,38,30,48,10,88,90,96,98,95,61,86,18,72,75
